letting n =  10
letting blocks =  [[1, 1], [1, 6], [1, 7], [1, 10], [2, 1], [2, 3], [2, 8], [3, 4], [4, 2], [4, 3], [4, 5], [4, 7], [4, 9], [4, 10], [5, 3], [5, 4], [5, 5], [5, 7], [5, 8], [6, 2], [6, 4], [6, 5], [6, 8], [7, 4], [7, 6], [7, 8], [7, 10], [8, 2], [8, 6], [8, 8], [8, 9], [8, 10], [9, 2], [9, 3], [9, 4], [9, 7], [9, 9], [9, 10], [10, 1], [10, 3], [10, 6], [10, 7], [10, 8], [10, 9]]
